Normalized Data/p10_10_normalized_split0.vrp
NAME:p10_10_NORMALIZED_split
BEST_KNOWN: 0
COMMENT: 0
DIMENSION: 828
CAPACITY: 100
EDGE_WEIGHT_FORMAT: FUNCTION
EDGE_WEIGHT_TYPE: EXACT_2D
NODE_COORD_SECTION
1 0.00000 0.00000
2 50 9
3 50 9
4 50 9
5 50 9
6 8 -24
7 8 -24
8 8 -24
9 8 -24
10 8 -24
11 7 26
12 7 26
13 7 26
14 7 26
15 33 25
16 33 25
17 33 25
18 11 22
19 11 22
20 20 -19
21 20 -19
22 20 -19
23 20 -19
24 20 -19
25 20 -19
26 32 -30
27 32 -30
28 32 -30
29 -41 -11
30 -41 -11
31 -41 -11
32 -41 -11
33 -41 -11
34 -41 -11
35 -30 -27
36 -30 -27
37 -30 -27
38 -30 -27
39 -30 -27
40 22 38
41 22 38
42 22 38
43 22 38
44 42 30
45 42 30
46 42 30
47 42 30
48 42 30
49 42 30
50 39 -27
51 39 -27
52 39 -27
53 39 -27
54 39 -27
55 39 -27
56 28 40
57 28 40
58 28 40
59 28 40
60 -49 -37
61 -49 -37
62 -30 30
63 -30 30
64 9 26
65 9 26
66 36 -34
67 36 -34
68 36 -34
69 36 -34
70 36 -34
71 36 -34
72 27 -8
73 27 -8
74 27 -8
75 27 -8
76 27 -8
77 27 -8
78 8 -23
79 8 -23
80 8 -23
81 8 -23
82 8 -23
83 8 -23
84 35 -24
85 35 -24
86 35 -24
87 35 -24
88 30 -6
89 30 -6
90 30 -6
91 30 -6
92 -26 30
93 -26 30
94 -26 30
95 -26 30
96 -26 30
97 16 9
98 16 9
99 16 9
100 16 9
101 16 9
102 30 -32
103 30 -32
104 30 -32
105 30 -32
106 -15 47
107 -15 47
108 -15 47
109 -15 47
110 -15 47
111 16 -20
112 16 -20
113 16 -20
114 16 -20
115 16 -20
116 22 -22
117 22 -22
118 22 -22
119 22 -22
120 22 -22
121 8 -28
122 8 -28
123 8 -28
124 8 -28
125 8 -28
126 8 -28
127 8 -28
128 8 -2
129 8 -2
130 8 -2
131 8 -2
132 26 43
133 26 43
134 26 43
135 26 43
136 26 43
137 -43 -48
138 -43 -48
139 -43 -48
140 -43 -48
141 -43 -48
142 -43 -48
143 -22 32
144 -22 32
145 16 -36
146 16 -36
147 16 -36
148 32 -9
149 32 -9
150 32 -9
151 32 -9
152 32 -9
153 -38 -35
154 -38 -35
155 -38 -35
156 -38 -35
157 -38 -35
158 20 21
159 20 21
160 20 21
161 -24 10
162 -24 10
163 21 -22
164 21 -22
165 -18 -30
166 -18 -30
167 -18 -30
168 -18 -30
169 -16 -9
170 -16 -9
171 16 3
172 16 3
173 16 3
174 16 3
175 -47 2
176 -47 2
177 -47 2
178 -47 2
179 -47 2
180 -47 2
181 -33 31
182 -33 31
183 -16 31
184 -16 31
185 -16 31
186 -16 31
187 -16 31
188 -16 31
189 -16 31
190 14 -36
191 14 -36
192 14 -36
193 14 -36
194 14 -36
195 11 21
196 11 21
197 11 21
198 11 21
199 11 21
200 11 21
201 -22 -1
202 -22 -1
203 -10 -50
204 -10 -50
205 -10 -50
206 20 -43
207 20 -43
208 -35 23
209 -35 23
210 -35 23
211 -35 23
212 -26 -8
213 -26 -8
214 -26 -8
215 -26 -8
216 22 46
217 22 46
218 22 46
219 22 46
220 22 46
221 -34 8
222 -34 8
223 -34 8
224 -34 8
225 33 -5
226 33 -5
227 33 -5
228 33 -5
229 33 -5
230 -44 -46
231 -44 -46
232 -44 -46
233 -44 -46
234 -44 -46
235 -44 -46
236 -44 -46
237 -49 -6
238 -49 -6
239 -49 -6
240 -49 -6
241 15 -11
242 15 -11
243 15 -11
244 26 14
245 26 14
246 26 14
247 26 14
248 26 14
249 26 14
250 -33 -43
251 -33 -43
252 -33 -43
253 -33 -43
254 -33 -43
255 -33 -43
256 17 -4
257 17 -4
258 10 -47
259 10 -47
260 10 -47
261 10 -47
262 10 -47
263 10 -47
264 23 31
265 23 31
266 23 31
267 9 -33
268 9 -33
269 9 -33
270 9 -33
271 -8 -38
272 -8 -38
273 -8 -38
274 -8 -38
275 -8 -38
276 14 33
277 14 33
278 14 33
279 14 33
280 14 33
281 -39 28
282 -39 28
283 -39 28
284 -13 43
285 -13 43
286 -13 43
287 -26 -27
288 -26 -27
289 -26 -27
290 7 7
291 7 7
292 7 7
293 34 -4
294 34 -4
295 34 -4
296 34 -4
297 20 47
298 20 47
299 20 47
300 20 47
301 -1 4
302 -1 4
303 -1 4
304 -1 4
305 -1 4
306 -1 4
307 -42 -28
308 -42 -28
309 -42 -28
310 -42 -28
311 26 -40
312 26 -40
313 26 -40
314 26 -40
315 6 26
316 6 26
317 6 26
318 6 26
319 26 33
320 26 33
321 33 -32
322 33 -32
323 33 -32
324 33 -32
325 33 -32
326 33 -32
327 38 -3
328 -42 -37
329 -42 -37
330 -42 -37
331 -42 -37
332 -42 -37
333 -26 26
334 -26 26
335 -26 26
336 -26 26
337 -10 -22
338 -10 -22
339 -10 -22
340 -10 -22
341 -6 43
342 -6 43
343 -6 43
344 21 40
345 21 40
346 21 40
347 33 -21
348 33 -21
349 33 -21
350 -15 3
351 -15 3
352 -15 3
353 -15 3
354 -15 3
355 45 -14
356 45 -14
357 45 -14
358 45 -14
359 45 -14
360 -22 49
361 -22 49
362 -22 49
363 -22 49
364 -22 49
365 -28 31
366 -28 31
367 -50 40
368 -50 40
369 -50 40
370 -50 40
371 -50 40
372 47 -29
373 47 -29
374 47 -29
375 47 -29
376 42 -27
377 42 -27
378 42 -27
379 14 48
380 14 48
381 14 48
382 14 48
383 14 48
384 6 -24
385 6 -24
386 6 -24
387 6 -24
388 6 -24
389 -19 6
390 -19 6
391 -19 6
392 -19 6
393 33 43
394 33 43
395 33 43
396 33 43
397 33 43
398 -22 23
399 -22 23
400 -22 23
401 -35 -45
402 -35 -45
403 -35 -45
404 -1 29
405 -1 29
406 -3 13
407 -3 13
408 -3 13
409 -3 13
410 -3 13
411 -3 13
412 -3 13
413 -50 40
414 -50 40
415 -50 40
416 -45 34
417 -45 34
418 -45 34
419 -45 34
420 -45 34
421 -45 34
422 -45 34
423 17 32
424 17 32
425 17 32
426 17 32
427 24 1
428 24 1
429 24 1
430 24 1
431 -21 30
432 -21 30
433 -21 30
434 -21 30
435 -21 30
436 14 -10
437 14 -10
438 -41 37
439 -41 37
440 -41 37
441 -41 37
442 -39 -23
443 -39 -23
444 -39 -23
445 26 30
446 26 30
447 26 30
448 26 30
449 26 30
450 26 30
451 -39 -31
452 -39 -31
453 38 -1
454 38 -1
455 38 -1
456 38 -1
457 38 -1
458 41 -47
459 41 -47
460 41 -47
461 -13 36
462 -13 36
463 -13 36
464 33 8
465 33 8
466 33 8
467 -10 -42
468 -12 -26
469 -12 -26
470 7 11
471 7 11
472 -25 -1
473 -25 -1
474 -25 -1
475 -25 -1
476 -25 -1
477 32 -27
478 32 -27
479 32 -27
480 32 -27
481 -9 -1
482 -9 -1
483 -9 -1
484 -9 -1
485 -9 -1
486 -25 16
487 -25 16
488 6 48
489 6 48
490 42 -29
491 42 -29
492 42 -29
493 42 -29
494 7 -46
495 7 -46
496 7 -46
497 7 -46
498 -32 -9
499 -32 -9
500 -32 -9
501 27 -42
502 27 -42
503 27 -42
504 10 37
505 10 37
506 10 37
507 -42 0
508 -42 0
509 -42 0
510 -50 -28
511 -50 -28
512 -50 -28
513 -50 -28
514 13 -49
515 13 -49
516 13 -49
517 13 -49
518 13 -49
519 13 -49
520 13 -49
521 -32 14
522 -32 14
523 -32 14
524 44 -21
525 44 -21
526 44 -21
527 44 -21
528 44 -21
529 -35 -17
530 -35 -17
531 -35 -17
532 -35 -17
533 -35 -17
534 -35 -17
535 17 -8
536 17 -8
537 17 -8
538 -31 -30
539 -31 -30
540 -31 -30
541 -31 -30
542 -31 -30
543 -31 -30
544 -31 -30
545 17 -26
546 17 -26
547 -28 -45
548 -28 -45
549 -28 -45
550 -28 -45
551 19 -50
552 19 -50
553 19 -50
554 19 -50
555 19 -50
556 19 -50
557 -40 -31
558 -40 -31
559 -40 -31
560 -40 -31
561 -40 -31
562 5 -43
563 5 -43
564 5 -43
565 5 -43
566 5 -43
567 5 -43
568 -2 -32
569 -2 -32
570 -2 -32
571 -2 -32
572 -2 -32
573 -2 -32
574 2 -38
575 2 -38
576 2 -38
577 2 -38
578 -1 -43
579 -1 -43
580 -1 -43
581 -1 -43
582 -1 -43
583 -1 -43
584 -1 -43
585 16 12
586 16 12
587 16 12
588 16 12
589 16 12
590 -26 -21
591 -26 -21
592 -26 -21
593 -26 -21
594 -26 -21
595 21 50
596 21 50
597 21 50
598 21 50
599 21 50
600 -23 16
601 -23 16
602 -23 16
603 -23 16
604 -26 26
605 -26 26
606 -26 26
607 -33 7
608 -33 7
609 -33 7
610 -33 7
611 -33 7
612 13 8
613 13 8
614 13 8
615 13 8
616 34 -42
617 34 -42
618 34 -42
619 34 -42
620 34 -42
621 34 -42
622 -28 -49
623 -28 -49
624 50 34
625 50 34
626 50 34
627 42 25
628 42 25
629 42 25
630 42 25
631 -7 10
632 -7 10
633 -7 10
634 -7 10
635 -7 10
636 -15 23
637 -15 23
638 -15 23
639 -15 23
640 -15 23
641 -15 23
642 46 -45
643 46 -45
644 46 -45
645 46 -45
646 46 -45
647 46 -45
648 46 -45
649 -14 -39
650 -14 -39
651 -14 -39
652 23 26
653 23 26
654 23 26
655 23 26
656 -32 -48
657 -32 -48
658 -32 -48
659 33 -21
660 33 -21
661 -11 -46
662 -11 -46
663 -11 -46
664 -11 -46
665 -11 -46
666 -11 -46
667 -11 -46
668 34 -47
669 34 -47
670 34 -47
671 34 -47
672 34 -47
673 34 -47
674 39 -33
675 39 -33
676 39 -33
677 39 -33
678 -12 30
679 -12 30
680 -12 30
681 -12 30
682 -12 30
683 -48 -2
684 -28 -40
685 -28 -40
686 -28 -40
687 -28 -40
688 -28 -40
689 -39 47
690 -39 47
691 -39 47
692 -39 47
693 -8 6
694 -8 6
695 -8 6
696 -8 6
697 -25 -39
698 -25 -39
699 -25 -39
700 0 29
701 0 29
702 0 29
703 0 29
704 48 -40
705 48 -40
706 48 -40
707 48 -40
708 48 -40
709 48 -40
710 -6 2
711 -6 2
712 -6 2
713 -6 2
714 32 28
715 32 28
716 32 28
717 32 28
718 32 28
719 32 28
720 -26 -15
721 -26 -15
722 -26 -15
723 -26 -15
724 -26 -15
725 -26 -15
726 -22 -18
727 -22 -18
728 -22 -18
729 22 48
730 22 48
731 22 48
732 50 -5
733 50 -5
734 42 -26
735 42 -26
736 42 -26
737 42 -26
738 8 38
739 8 38
740 8 38
741 8 38
742 8 38
743 49 -23
744 49 -23
745 49 -23
746 49 -23
747 44 17
748 44 17
749 4 36
750 4 36
751 4 36
752 4 36
753 30 48
754 30 48
755 30 48
756 30 48
757 30 48
758 -15 22
759 -15 22
760 -15 22
761 -15 22
762 -15 22
763 -15 22
764 -18 -24
765 -18 -24
766 -18 -24
767 -18 -24
768 -18 -24
769 19 28
770 19 28
771 19 28
772 19 28
773 -38 -45
774 -38 -45
775 32 -14
776 32 -14
777 32 -14
778 32 -14
779 -48 30
780 -48 30
781 -48 30
782 -48 30
783 -48 30
784 -48 30
785 -48 30
786 -20 -20
787 -20 -20
788 -20 -20
789 -20 -20
790 -20 -20
791 23 -4
792 23 -4
793 23 -4
794 23 -4
795 -20 45
796 -20 45
797 -20 45
798 -20 45
799 -20 45
800 -20 45
801 41 49
802 41 49
803 41 49
804 -31 11
805 -31 11
806 -31 11
807 -31 11
808 -31 11
809 43 -9
810 43 -9
811 43 -9
812 43 -9
813 43 -9
814 -32 15
815 -32 15
816 -18 38
817 9 -20
818 9 -20
819 9 -20
820 9 -20
821 9 -20
822 9 -20
823 -22 -11
824 -22 -11
825 -22 -11
826 -22 -11
827 -22 -11
828 -22 -11
DEMAND_SECTION
1 0
2 10
3 1
4 1
5 1
6 20
7 5
8 1
9 1
10 1
11 20
12 10
13 1
14 1
15 10
16 5
17 1
18 10
19 5
20 20
21 10
22 5
23 1
24 1
25 1
26 20
27 10
28 5
29 20
30 5
31 1
32 1
33 1
34 1
35 20
36 10
37 1
38 1
39 1
40 10
41 1
42 1
43 1
44 20
45 5
46 1
47 1
48 1
49 1
50 20
51 5
52 1
53 1
54 1
55 1
56 20
57 20
58 1
59 1
60 20
61 5
62 20
63 1
64 20
65 10
66 20
67 5
68 1
69 1
70 1
71 1
72 20
73 20
74 1
75 1
76 1
77 1
78 10
79 5
80 1
81 1
82 1
83 1
84 20
85 10
86 1
87 1
88 10
89 1
90 1
91 1
92 20
93 1
94 1
95 1
96 1
97 10
98 5
99 1
100 1
101 1
102 20
103 1
104 1
105 1
106 20
107 10
108 5
109 1
110 1
111 20
112 10
113 1
114 1
115 1
116 20
117 10
118 5
119 1
120 1
121 20
122 20
123 5
124 1
125 1
126 1
127 1
128 10
129 1
130 1
131 1
132 20
133 20
134 1
135 1
136 1
137 20
138 10
139 1
140 1
141 1
142 1
143 20
144 10
145 20
146 20
147 1
148 20
149 5
150 1
151 1
152 1
153 10
154 1
155 1
156 1
157 1
158 20
159 20
160 10
161 20
162 1
163 20
164 5
165 10
166 5
167 1
168 1
169 20
170 20
171 20
172 1
173 1
174 1
175 20
176 10
177 1
178 1
179 1
180 1
181 10
182 5
183 20
184 20
185 5
186 1
187 1
188 1
189 1
190 20
191 20
192 5
193 1
194 1
195 10
196 5
197 1
198 1
199 1
200 1
201 20
202 1
203 20
204 10
205 1
206 20
207 10
208 20
209 1
210 1
211 1
212 10
213 1
214 1
215 1
216 20
217 1
218 1
219 1
220 1
221 20
222 5
223 1
224 1
225 20
226 20
227 1
228 1
229 1
230 20
231 10
232 5
233 1
234 1
235 1
236 1
237 20
238 10
239 1
240 1
241 20
242 10
243 1
244 20
245 10
246 5
247 1
248 1
249 1
250 20
251 10
252 1
253 1
254 1
255 1
256 20
257 20
258 20
259 5
260 1
261 1
262 1
263 1
264 20
265 10
266 5
267 20
268 10
269 1
270 1
271 20
272 10
273 1
274 1
275 1
276 20
277 10
278 5
279 1
280 1
281 20
282 20
283 5
284 20
285 1
286 1
287 20
288 20
289 1
290 20
291 20
292 1
293 10
294 5
295 1
296 1
297 20
298 20
299 1
300 1
301 20
302 5
303 1
304 1
305 1
306 1
307 20
308 10
309 5
310 1
311 10
312 1
313 1
314 1
315 10
316 5
317 1
318 1
319 20
320 1
321 20
322 20
323 5
324 1
325 1
326 1
327 20
328 20
329 5
330 1
331 1
332 1
333 20
334 1
335 1
336 1
337 10
338 1
339 1
340 1
341 10
342 5
343 1
344 10
345 5
346 1
347 20
348 20
349 5
350 20
351 20
352 1
353 1
354 1
355 20
356 10
357 1
358 1
359 1
360 10
361 5
362 1
363 1
364 1
365 20
366 10
367 20
368 5
369 1
370 1
371 1
372 20
373 5
374 1
375 1
376 10
377 5
378 1
379 20
380 10
381 1
382 1
383 1
384 10
385 1
386 1
387 1
388 1
389 20
390 10
391 5
392 1
393 10
394 5
395 1
396 1
397 1
398 10
399 1
400 1
401 20
402 5
403 1
404 20
405 20
406 20
407 10
408 5
409 1
410 1
411 1
412 1
413 20
414 20
415 5
416 20
417 20
418 5
419 1
420 1
421 1
422 1
423 20
424 10
425 5
426 1
427 20
428 20
429 5
430 1
431 20
432 5
433 1
434 1
435 1
436 10
437 5
438 20
439 20
440 1
441 1
442 20
443 1
444 1
445 10
446 5
447 1
448 1
449 1
450 1
451 20
452 5
453 10
454 1
455 1
456 1
457 1
458 20
459 20
460 5
461 20
462 20
463 10
464 20
465 5
466 1
467 20
468 20
469 1
470 20
471 5
472 20
473 1
474 1
475 1
476 1
477 20
478 10
479 1
480 1
481 10
482 5
483 1
484 1
485 1
486 10
487 5
488 20
489 10
490 20
491 1
492 1
493 1
494 20
495 20
496 5
497 1
498 20
499 10
500 5
501 20
502 5
503 1
504 20
505 5
506 1
507 20
508 5
509 1
510 20
511 1
512 1
513 1
514 20
515 20
516 5
517 1
518 1
519 1
520 1
521 10
522 5
523 1
524 20
525 1
526 1
527 1
528 1
529 10
530 5
531 1
532 1
533 1
534 1
535 20
536 5
537 1
538 20
539 20
540 5
541 1
542 1
543 1
544 1
545 10
546 5
547 20
548 10
549 1
550 1
551 20
552 10
553 5
554 1
555 1
556 1
557 20
558 5
559 1
560 1
561 1
562 10
563 5
564 1
565 1
566 1
567 1
568 20
569 5
570 1
571 1
572 1
573 1
574 20
575 20
576 5
577 1
578 20
579 20
580 5
581 1
582 1
583 1
584 1
585 20
586 10
587 1
588 1
589 1
590 20
591 10
592 5
593 1
594 1
595 20
596 5
597 1
598 1
599 1
600 20
601 20
602 1
603 1
604 20
605 20
606 1
607 20
608 20
609 1
610 1
611 1
612 10
613 5
614 1
615 1
616 20
617 5
618 1
619 1
620 1
621 1
622 20
623 10
624 20
625 10
626 1
627 10
628 5
629 1
630 1
631 20
632 10
633 1
634 1
635 1
636 20
637 20
638 1
639 1
640 1
641 1
642 20
643 20
644 5
645 1
646 1
647 1
648 1
649 20
650 10
651 1
652 20
653 20
654 5
655 1
656 20
657 1
658 1
659 10
660 5
661 20
662 20
663 5
664 1
665 1
666 1
667 1
668 20
669 20
670 5
671 1
672 1
673 1
674 20
675 10
676 1
677 1
678 20
679 20
680 1
681 1
682 1
683 20
684 20
685 10
686 5
687 1
688 1
689 20
690 1
691 1
692 1
693 20
694 10
695 5
696 1
697 20
698 20
699 10
700 20
701 20
702 5
703 1
704 20
705 10
706 5
707 1
708 1
709 1
710 10
711 1
712 1
713 1
714 20
715 10
716 1
717 1
718 1
719 1
720 10
721 5
722 1
723 1
724 1
725 1
726 20
727 10
728 5
729 20
730 20
731 10
732 20
733 20
734 20
735 20
736 1
737 1
738 10
739 1
740 1
741 1
742 1
743 10
744 1
745 1
746 1
747 20
748 5
749 20
750 5
751 1
752 1
753 10
754 1
755 1
756 1
757 1
758 20
759 20
760 1
761 1
762 1
763 1
764 20
765 20
766 1
767 1
768 1
769 20
770 10
771 1
772 1
773 20
774 5
775 20
776 10
777 1
778 1
779 20
780 10
781 5
782 1
783 1
784 1
785 1
786 10
787 5
788 1
789 1
790 1
791 20
792 20
793 5
794 1
795 20
796 20
797 5
798 1
799 1
800 1
801 10
802 5
803 1
804 20
805 5
806 1
807 1
808 1
809 10
810 5
811 1
812 1
813 1
814 20
815 20
816 20
817 20
818 20
819 1
820 1
821 1
822 1
823 20
824 20
825 5
826 1
827 1
828 1
DEPOT_SECTION
1
-1
EOF