Normalized Data/p10_10_normalized_split0.sol
827 -15 16 14 44 48 46 43 45 47 625 623 624 628 627 626 629 248 246 247 614 -18 17 279 278 275 277 276 423 425 422 199 194 198 195 -24 19 22 23 21 20 117 115 118 116 119 162 163 -25 26 320 324 325 323 322 321 476 479 -27 67 68 70 65 69 66 457 459 458 500 -34 328 327 331 329 330 60 59 509 511 512 510 -38 37 35 36 537 539 540 538 286 287 288 -52 53 54 51 377 376 375 490 492 491 489 673 674 675 676 103 102 104 101 -72 71 73 75 76 74 148 151 147 90 87 88 89 -80 77 78 8 5 9 126 124 123 120 122 121 387 383 384 386 385 -82 79 81 7 6 192 189 190 193 191 144 146 145 -85 86 83 84 50 49 735 734 733 736 -95 91 92 94 93 365 364 180 181 61 62 397 -97 98 99 96 100 585 584 588 586 587 291 290 289 -125 266 519 513 517 518 514 516 515 261 260 258 257 259 262 -127 255 256 534 240 241 -128 129 130 811 810 812 808 809 731 732 2 4 1 3 747 746 -149 150 356 358 354 355 357 524 527 526 525 523 744 742 743 745 371 374 373 372 -159 157 158 651 652 653 654 -161 160 522 520 521 813 814 599 601 602 -169 168 472 471 201 200 480 481 484 482 483 -171 172 170 173 464 465 463 244 243 245 611 613 612 -202 203 204 662 661 666 665 660 663 664 466 -209 207 780 779 783 782 778 781 784 281 280 -210 208 282 419 416 415 421 418 420 417 438 440 439 437 -214 212 213 211 682 175 179 178 176 177 174 506 507 508 475 474 473 -226 227 224 225 228 292 293 295 294 326 452 454 455 453 456 -230 231 229 233 235 232 234 139 140 141 137 138 136 773 772 -239 236 237 238 33 28 30 29 32 31 498 497 499 -249 400 401 402 156 152 155 153 154 450 531 530 532 533 529 528 -269 268 267 550 555 552 554 553 551 206 205 545 544 -270 273 271 274 272 649 648 650 164 165 467 468 -299 297 298 296 594 596 597 595 598 218 217 216 215 219 424 -303 302 304 305 301 300 631 634 632 630 633 693 695 694 692 -311 313 312 310 501 502 667 672 670 671 668 669 620 618 616 619 617 615 -315 314 316 317 10 11 13 12 63 64 469 -318 319 58 57 55 56 40 41 39 42 771 768 770 -335 605 334 333 603 604 332 485 486 600 -336 338 339 337 167 166 698 697 696 684 683 685 -345 344 343 730 729 728 381 379 382 378 380 -348 346 658 659 347 777 776 774 775 536 535 -352 353 351 349 350 390 391 389 388 710 711 712 709 -369 413 414 370 366 367 412 368 688 690 689 691 -399 398 142 143 362 363 359 360 361 799 798 795 796 797 794 -407 341 342 340 284 285 283 106 105 107 109 108 815 -408 406 404 403 700 701 699 702 -410 409 411 405 183 186 188 187 182 184 185 434 432 431 430 433 -429 427 428 426 793 790 792 791 -436 435 242 111 110 114 113 112 817 821 816 819 818 820 -449 448 395 392 396 393 394 800 801 802 753 755 756 754 752 133 132 135 134 131 197 196 470 -462 461 460 679 680 677 678 681 -478 477 705 706 708 704 707 703 641 647 645 644 642 646 643 -494 496 493 495 564 566 565 561 563 562 573 576 575 -504 505 503 741 739 738 740 737 488 487 749 750 751 748 -542 541 543 451 559 556 557 560 558 306 309 307 308 441 443 442 720 724 -549 548 547 546 621 622 655 656 657 254 250 251 253 252 686 687 -570 569 571 568 572 567 581 578 583 579 582 577 580 574 -593 591 592 589 590 722 723 719 721 822 825 826 823 827 824 -608 606 610 607 609 221 222 223 220 806 803 805 804 807 -637 639 636 640 635 638 760 757 758 761 759 762 -714 716 715 718 717 713 445 447 446 444 263 265 264 769 -727 725 726 789 786 787 788 785 764 767 766 763 765 0 





OBJ=
5604.311
BEST_KNOWN=
0.000